NAME : local_5
TYPE : ATSP
DIMENSION : 8
EDGE_WEIGHT_TYPE : EXPLICIT
EDGE_WEIGHT_FORMAT : FULL_MATRIX
EDGE_WEIGHT_SECTION
0 698 810 334 10000000 590 10000000 613 
0 0 132 924 1096 728 1045 886 
0 132 0 1013 1034 842 1017 1003 
0 898 1015 0 10000000 624 1033 507 
0 1073 1027 10000000 0 10000000 195 10000000 
0 728 842 624 10000000 0 10000000 252 
0 1044 1014 1079 195 10000000 0 1351 
0 10000000 10000000 10000000 10000000 10000000 10000000 0 
EOF